
<<< setup


<<< generate

Version identifier: 22.1.1.0 | 2022-11-28 | 9160aff4d
CPXPARAM_TimeLimit                               1800
CPXPARAM_MIP_Tolerances_MIPGap                   0.01
Found incumbent of value 0.000000 after 0.00 sec. (0.32 ticks)
Tried aggregator 1 time.
MIP Presolve eliminated 100 rows and 0 columns.
Reduced MIP has 12251 rows, 9950 columns, and 44150 nonzeros.
Reduced MIP has 9850 binaries, 100 generals, 0 SOSs, and 0 indicators.
Presolve time = 0.02 sec. (16.59 ticks)
Probing time = 0.05 sec. (5.15 ticks)
Tried aggregator 1 time.
Detecting symmetries...
Reduced MIP has 12251 rows, 9950 columns, and 44150 nonzeros.
Reduced MIP has 9850 binaries, 100 generals, 0 SOSs, and 0 indicators.
Presolve time = 0.02 sec. (65.12 ticks)
Probing time = 0.04 sec. (5.15 ticks)
Clique table members: 3777.
MIP emphasis: balance optimality and feasibility.
MIP search method: dynamic search.
Parallel mode: deterministic, using up to 8 threads.
Root relaxation solution time = 0.05 sec. (68.63 ticks)

        Nodes                                         Cuts/
   Node  Left     Objective  IInf  Best Integer    Best Bound    ItCnt     Gap

*     0+    0                            0.0000     2554.0000              --- 
*     0+    0                           98.0000     2554.0000              --- 
      0     0     2113.5000   916       98.0000     2113.5000     2046     --- 
*     0+    0                          422.0000     2113.5000           400.83%
      0     0     2108.8667   372      422.0000     Cuts: 143     2664  399.73%
      0     0     2107.0000   721      422.0000     Cuts: 247     3562  399.29%
      0     0     2106.8000   713      422.0000     Cuts: 330     4027  399.24%
*     0+    0                         1132.0000     2106.8000            86.11%
*     0+    0                         1284.0000     2106.8000            64.08%
*     0+    0                         1323.0000     2106.8000            59.24%
*     0+    0                         1493.0000     2106.8000            41.11%
*     0+    0                         1582.0000     2106.8000            33.17%
*     0+    0                         1668.0000     2106.8000            26.31%
*     0+    0                         1736.0000     2106.8000            21.36%
*     0+    0                         1739.0000     2106.8000            21.15%
*     0+    0                         1782.0000     2106.8000            18.23%
      0     0        cutoff           1782.0000     2106.8000     4027   18.23%
      0     0     2106.7143   767     1782.0000     Cuts: 154     4419   18.22%
      0     0     2106.7143   839     1782.0000     Cuts: 171     4697   18.22%

Repeating presolve.
Tried aggregator 1 time.
MIP Presolve eliminated 6125 rows and 4900 columns.
Reduced MIP has 6126 rows, 5050 columns, and 22100 nonzeros.
Reduced MIP has 4950 binaries, 100 generals, 0 SOSs, and 0 indicators.
Presolve time = 0.01 sec. (19.09 ticks)
Probing time = 0.04 sec. (3.04 ticks)
Tried aggregator 1 time.
Detecting symmetries...
Reduced MIP has 6126 rows, 5050 columns, and 22100 nonzeros.
Reduced MIP has 4950 binaries, 100 generals, 0 SOSs, and 0 indicators.
Presolve time = 0.01 sec. (11.93 ticks)
Represolve time = 0.08 sec. (65.49 ticks)
Probing time = 0.03 sec. (3.11 ticks)
Clique table members: 1860.
MIP emphasis: balance optimality and feasibility.
MIP search method: dynamic search.
Parallel mode: deterministic, using up to 8 threads.
Root relaxation solution time = 0.04 sec. (29.81 ticks)

        Nodes                                         Cuts/
   Node  Left     Objective  IInf  Best Integer    Best Bound    ItCnt     Gap

*     0+    0                         1782.0000     2106.7143            18.22%
      0     0     2106.7143   824     1782.0000     2106.7143     5962   18.22%
      0     0     2106.7143    87     1782.0000      Cuts: 14     5982   18.22%
      0     0     2106.7143   107     1782.0000      Cuts: 59     6144   18.22%
*     0+    0                         2032.0000     2106.7143             3.68%
      0     0     2106.7105   103     2032.0000      Cuts: 46     6238    3.64%
      0     0     2106.7105    69     2032.0000      Cuts: 58     6317    3.64%
      0     0     2106.7105    85     2032.0000      Cuts: 19     6393    3.64%
*     0+    0                         2082.0000     2106.0000             1.15%
*     0+    0                         2105.0000     2106.0000             0.05%

Clique cuts applied:  18
Cover cuts applied:  2
Implied bound cuts applied:  27
Flow cuts applied:  2
Mixed integer rounding cuts applied:  155
Zero-half cuts applied:  8
Lift and project cuts applied:  2
Gomory fractional cuts applied:  6

Root node processing (before b&c):
  Real time             =    3.94 sec. (2836.74 ticks)
Parallel b&c, 8 threads:
  Real time             =    0.00 sec. (0.00 ticks)
  Sync time (average)   =    0.00 sec.
  Wait time (average)   =    0.00 sec.
                          ------------
Total (root+branch&cut) =    3.94 sec. (2836.74 ticks)

<<< solve


OBJECTIVE: 2105

<<< post process


<<< done

